Zn2 O2                                  
   1.00000000000000     
     1.6185877908281250   -2.8034763973002872    0.0000000000000000
     1.6185877908281321    2.8034763973002872   -0.0000000000000000
     0.0000000000000000   -0.0000000000000000    5.2262159111798905
   Zn   O 
     2     2
Direct
  0.3333330000000032  0.6666669999999968  0.0007012493143415
  0.6666669999999968  0.3333330000000032  0.5007012493143438
  0.3333330000000032  0.6666669999999968  0.3796087506856615
  0.6666669999999968  0.3333330000000032  0.8796087506856577
 
  0.00000000E+00  0.00000000E+00  0.00000000E+00
  0.00000000E+00  0.00000000E+00  0.00000000E+00
  0.00000000E+00  0.00000000E+00  0.00000000E+00
  0.00000000E+00  0.00000000E+00  0.00000000E+00
